(set-info :source |
 Generated by Alive 0.1
 More info in N. P. Lopes, D. Menendez, S. Nagarakatte, J. Regehr.
 Provably Correct Peephole Optimizations with Alive. In PLDI'15.
|)

(set-info :status unknown)
(declare-fun %Y () (_ BitVec 1))
(declare-fun %X () (_ BitVec 1))
(assert
 (let (($x435156 (and (distinct (bvurem ((_ zero_extend 5) %X) ((_ zero_extend 5) %Y)) ((_ zero_extend 5) (bvurem %X %Y))) true)))
 (let ((?x427562 ((_ zero_extend 5) %Y)))
 (let (($x427855 (and (distinct ?x427562 (_ bv0 6)) true)))
 (and $x427855 $x435156)))))
(check-sat)
